#p svwn5/6-31g* guess=core

Title Card Required

0 1
C       0.0000      0.4631      0.0000
C      -0.9354     -0.7201      0.0000
O       1.2082      0.3867      0.0000
H      -0.5038      1.4571      0.0000
H      -0.3699     -1.6547      0.0000
H      -1.5897     -0.6774      0.8808
H      -1.5897     -0.6774     -0.8808


