%chk=cdim2popt.chk
# b3lyp/lanl2dz opt

Title Card Required

2 1
 C                 -2.78999500    0.74056400    0.00001800
 H                 -3.70049600    1.31611600    0.00000000
 C                 -1.48944900    1.14897200   -0.00002000
 H                 -1.09552900    2.15074800   -0.00004500
 C                 -1.50657000   -1.10545200    0.00004000
 H                 -1.22203100   -2.14449500   -0.00000200
 N                 -2.77246100   -0.65628800   -0.00001000
 H                 -3.60484300   -1.25032600   -0.00030300
 Cd                 1.42717100   -0.00088800   -0.00000700
 N                 -0.67971300   -0.01998800    0.00007800


