%chk=ch3cho.chk
# hf/6-31g*

Title Card Required

0 1
 C                 -1.17113800   -0.14854600    0.00000400
 H                 -1.71414500    0.21976400   -0.88047000
 H                 -1.71369100    0.21895800    0.88107500
 H                 -1.15561300   -1.24068200   -0.00060100
 C                  0.23407800    0.39959700    0.00002200
 H                  0.30198000    1.51162800   -0.00014600
 O                  1.23797900   -0.27699600   -0.00000200


