%chk=crc3.chk
#p bv5lyp iop(3/76=1000002000,3/77=0720008000,3/78=0810010000) 6-31g guess=core symmetry=none

Title Card Required

0 3
 Cr                0.00000000    0.00000000    0.00000000
 C                 0.00000000    0.00000000    2.00000000


