#p b3lyp/sto-3g guess=cards symmetry=none population=full scf(maxcycle=1) iop(5/33=3) iop(3/33=1) iop(5/13=1)

iop(5/33=3): print fock; iop(3/33=1): print 1-e integrals; iop(5/13=1): do not terminate when scf fails

0 1
 O                 -2.54062035   -0.22895125    0.00000000
 H                 -1.58062035   -0.22895125    0.00000000
 H                 -2.86107494    0.67598458    0.00000000

(1e20.8)
   1
   0.99244e+00
   0.03410e+00
   0.00270e+00
   0.00382e+00
   0.00000e+00
  -0.00817e+00
  -0.00816e+00
   2
  -0.16985e+00
   0.47032e+00
   0.09773e+00
   0.13711e+00
   0.00000e+00
   0.39250e+00
   0.38207e+00
   3
   0.00225e+00
  -0.00897e+00
   0.23288e+00
  -0.16715e+00
   0.00000e+00
   0.66363e+00
  -0.66204e+00
   4
  -0.21833e+00
   1.06835e+00
  -0.20349e+00
  -0.29499e+00
   0.00000e+00
  -0.50080e+00
  -0.50265e+00
   5
   0.00000e+00
   0.00000e+00
   0.00000e+00
   0.00000e+00
   1.00000e+00
   0.00000e+00
   0.00000e+00
   6
  -0.09595e+00
   0.63197e+00
   0.58378e+00
   0.80893e+00
   0.00000e+00
  -0.58551e+00
  -0.57782e+00
   7
   0.00115e+00
  -0.00735e+00
   0.92114e+00
  -0.65954e+00
   0.00000e+00
  -0.66486e+00
   0.67772e+00
   0


